NAME : local_1
TYPE : ATSP
DIMENSION : 9
EDGE_WEIGHT_TYPE : EXPLICIT
EDGE_WEIGHT_FORMAT : FULL_MATRIX
EDGE_WEIGHT_SECTION
0 457 10000000 10000000 500 146 892 10000000 10000000 
0 0 10000000 10000000 410 363 463 1006 758 
0 10000000 0 476 10000000 10000000 10000000 577 997 
0 10000000 476 0 10000000 10000000 10000000 172 624 
0 410 10000000 10000000 0 465 584 10000000 970 
0 363 10000000 10000000 465 0 809 10000000 10000000 
0 463 10000000 10000000 584 809 0 962 528 
0 1014 577 172 10000000 10000000 962 0 554 
0 10000000 10000000 10000000 10000000 10000000 10000000 10000000 0 
EOF